c turning on binary mode checking
c parsing input formula with 202048 variables and 780985 clauses
c finished parsing, read 2264859 bytes from proof file
c detected empty clause; start verification via backward checking
c 3125 of 780985 clauses in core                            
c 1025 of 90588 lemmas in core using 23301 resolution steps
c 0 RAT lemmas in core; 132 redundant literals in core lemmas
s VERIFIED
c verification time: 0.998 seconds
